\* Problem: Unknown *\

Maximize
 obj: + xp_0_0 + xp_0_1 + xp_0_2 + xp_0_3 + xp_0_4 + xp_0_5 + xp_1_0
 + xp_1_1 + xp_2_0 + xp_2_1 + xp_2_2 + xp_2_3 + xp_2_4 + xp_3_0 + xp_3_1
 + xp_3_2 + xp_4_0 + xp_5_0 + xp_5_1 + xp_6_0 + xp_6_1 + xp_7_0 + xp_7_1
 + xp_8_0 + xp_9_0 + xp_10_0 + xp_11_0 + xp_11_1 + xp_11_2 + xp_11_3
 + xp_11_4 + xp_12_0 + xp_13_0 + xp_13_1 + xp_14_0 + xp_14_1 + xp_15_0
 + xp_15_1 + xp_16_0 + xp_17_0 + xp_17_1 + xp_17_2 + xp_17_3 + xp_18_0
 + xp_18_1 + xp_18_2 + xp_18_3 + xp_18_4 + xp_19_0 + xp_19_1 + xp_19_2
 + xp_19_3 + xp_20_0 + xp_20_1 + xp_20_2 + xp_20_3 + xp_21_0 + xp_21_1
 + xp_21_2 + xp_21_3 + xp_22_0 + xp_22_1 + xp_22_2 + xp_22_3 + xp_22_4
 + xp_22_5 + xp_23_0 + xp_23_1 + xp_23_2 + xp_23_3 + xp_23_4

Subject To
 r_1: 0 xp_0_0 <= 30
 r_2: + xp_22_5 + xp_18_3 + xp_15_1 + xp_5_1 + xp_2_3
 <= 29.4574468085106
 r_3: + xp_23_2 + xp_21_2 + xp_18_2 <= 30
 r_4: + xp_18_4 + xp_17_2 + xp_15_0 <= 30
 r_5: + xp_18_0 <= 28.4612068965517
 r_6: + xp_18_1 <= 30
 r_7: + xp_20_3 <= 30
 r_8: + xp_22_4 + xp_11_3 + xp_3_2 + xp_2_1 <= 29.4574468085106
 r_9: + xp_23_3 + xp_11_1 + xp_6_1 + xp_3_1 <= 30
 r_10: + xp_23_4 + xp_17_3 + xp_3_0 <= 30
 r_11: + xp_18_1 + xp_11_2 <= 28.4612068965517
 r_12: + xp_11_0 <= 30
 r_13: + xp_11_4 <= 30
 r_14: + xp_21_3 + xp_14_0 + xp_0_3 + xp_0_1 <= 29.4574468085106
 r_15: + xp_21_0 + xp_19_3 <= 30
 r_16: + xp_22_2 + xp_21_1 + xp_0_4 + xp_0_2 <= 30
 r_17: + xp_0_0 <= 28.4612068965517
 r_18: + xp_21_2 + xp_4_0 <= 30
 r_19: + xp_19_0 <= 30
 r_20: + xp_19_2 + xp_19_1 + xp_14_1 + xp_0_5 <= 30
 r_21: + xp_20_1 <= 29.4574468085106
 r_22: + xp_21_3 + xp_7_1 <= 29.4574468085106
 r_23: + xp_22_5 + xp_22_4 + xp_22_3 + xp_15_1 <= 29.4574468085106
 r_24: + xp_18_3 + xp_3_2 + xp_0_5 + xp_0_3 <= 29.4574468085106
 r_25: 0 xp_0_0 <= 29.4574468085106
 r_26: + xp_0_1 <= 28.4612068965517
 r_27: + xp_11_4 + xp_11_3 <= 29.4574468085106
 r_28: + xp_19_2 <= 29.4574468085106
 r_29: + xp_20_2 <= 30
 r_30: + xp_2_0 <= 29.4574468085106
 r_31: + xp_23_3 + xp_23_2 + xp_18_2 + xp_6_1 + xp_3_1 + xp_2_4 <= 30
 r_32: + xp_2_2 <= 30
 r_33: + xp_11_1 + xp_2_3 <= 30
 r_34: + xp_19_3 + xp_2_1 <= 30
 r_35: 0 xp_0_0 <= 30
 r_36: + xp_9_0 <= 29.4574468085106
 r_37: + xp_21_1 + xp_13_1 <= 30
 r_38: + xp_1_1 + xp_0_4 <= 30
 r_39: + xp_17_1 + xp_15_1 <= 30
 r_40: + xp_0_2 <= 28.4612068965517
 r_41: + xp_12_0 + xp_2_4 <= 29.4574468085106
 r_42: + xp_21_1 <= 30
 r_43: + xp_16_0 <= 30
 r_44: + xp_23_3 + xp_23_2 + xp_23_1 <= 30
 r_45: + xp_3_2 + xp_3_1 <= 30
 r_46: + xp_18_3 + xp_18_2 + xp_0_5 + xp_0_3 <= 28.4612068965517
 r_47: + xp_22_1 + xp_13_1 <= 30
 r_48: + xp_13_0 <= 30
 r_49: 0 xp_0_0 <= 30
 r_50: + xp_0_4 <= 28.4612068965517
 r_51: + xp_1_1 <= 30
 r_52: + xp_8_0 <= 30
 r_53: + xp_23_4 + xp_1_0 <= 30
 r_54: + xp_18_4 <= 28.4612068965517
 r_55: 0 xp_0_0 <= 30
 r_56: 0 xp_0_0 <= 30
 r_57: + xp_22_2 <= 28.4612068965517
 r_58: + xp_22_3 + xp_5_0 <= 28.4612068965517
 r_59: + xp_22_0 + xp_17_1 <= 28.4612068965517
 r_60: + xp_23_1 + xp_6_0 <= 28.4612068965517
 r_61: + xp_23_0 + xp_22_1 <= 28.4612068965517
 r_62: + xp_17_0 <= 28.4612068965517
 r_63: + xp_23_2 + xp_22_5 + xp_17_2 + xp_11_2 + xp_5_1
 <= 28.4612068965517
 r_64: + xp_23_4 + xp_23_3 + xp_22_4 + xp_17_3 + xp_6_1
 <= 28.4612068965517
 r_65: + xp_20_1 + xp_19_2 + xp_14_1 + xp_11_4 + xp_7_1 + xp_2_2
 + xp_0_5 <= 29.4574468085106
 r_66: + xp_20_2 + xp_7_0 <= 30
 r_67: + xp_20_3 + xp_19_1 + xp_10_0 <= 30
 r_68: + xp_20_0 <= 30

Bounds
 0 <= xp_0_0 <= 28.0373968062205
 0 <= xp_0_1 <= 14.6996017334391
 0 <= xp_0_2 <= 14.6996017334391
 0 <= xp_0_3 <= 1.36180666065774
 0 <= xp_0_4 <= 1.36180666065774
 0 <= xp_0_5 <= 1.36180666065774
 0 <= xp_1_0 <= 18.518016841782
 0 <= xp_1_1 <= 15.9279059572817
 0 <= xp_2_0 <= 20.2136240537946
 0 <= xp_2_1 <= 4.44593169092713
 0 <= xp_2_2 <= 1.21494864504304
 0 <= xp_2_3 <= 6.8758289810132
 0 <= xp_2_4 <= 1.21494864504304
 0 <= xp_3_0 <= 20.2269707407308
 0 <= xp_3_1 <= 5.26034634993454
 0 <= xp_3_2 <= 6.07476100894195
 0 <= xp_4_0 <= 25.63417510628
 0 <= xp_5_0 <= 21.3618125885667
 0 <= xp_5_1 <= 4.27236251771333
 0 <= xp_6_0 <= 19.22563132971
 0 <= xp_6_1 <= 3.845126265942
 0 <= xp_7_0 <= 18.4245633576387
 0 <= xp_7_1 <= 3.68491267152775
 0 <= xp_8_0 <= 19.866485707367
 0 <= xp_9_0 <= 18.4245633576387
 0 <= xp_10_0 <= 18.4245633576387
 0 <= xp_11_0 <= 26.6755901455628
 0 <= xp_11_1 <= 10.5473860737414
 0 <= xp_11_2 <= 9.71962472779783
 0 <= xp_11_3 <= 10.5473860737414
 0 <= xp_11_4 <= 0.827761345943577
 0 <= xp_12_0 <= 17.303068196739
 0 <= xp_13_0 <= 14.0186895112469
 0 <= xp_13_1 <= 2.80373790224937
 0 <= xp_14_0 <= 5.34045314714167
 0 <= xp_14_1 <= 10.6809062942833
 0 <= xp_15_0 <= 13.2176215391756
 0 <= xp_15_1 <= 2.64352430783512
 0 <= xp_16_0 <= 15.2202914693537
 0 <= xp_17_0 <= 28.1842548218352
 0 <= xp_17_1 <= 8.93189455079936
 0 <= xp_17_2 <= 4.44593169092713
 0 <= xp_17_3 <= 2.97729818359979
 0 <= xp_18_0 <= 23.0974687532511
 0 <= xp_18_1 <= 11.5487343766255
 0 <= xp_18_2 <= 2.65687099477129
 0 <= xp_18_3 <= 2.65687099477129
 0 <= xp_18_4 <= 2.65687099477129
 0 <= xp_19_0 <= 29.2523543431269
 0 <= xp_19_1 <= 2.57676419756416
 0 <= xp_19_2 <= 2.57676419756416
 0 <= xp_19_3 <= 7.73029259269249
 0 <= xp_20_0 <= 27.1161641924069
 0 <= xp_20_1 <= 4.88650573777124
 0 <= xp_20_2 <= 6.88918455981275
 0 <= xp_20_3 <= 2.44325286888562
 0 <= xp_21_0 <= 22.0827826552942
 0 <= xp_21_1 <= 8.74498758251279
 0 <= xp_21_2 <= 2.14952794579283
 0 <= xp_21_3 <= 6.59545963671996
 0 <= xp_22_0 <= 17.1028056496529
 0 <= xp_22_1 <= 6.32843697936287
 0 <= xp_22_2 <= 1.88250528843575
 0 <= xp_22_3 <= 4.44593169092713
 0 <= xp_22_4 <= 3.76501057687149
 0 <= xp_22_5 <= 4.44593169092713
 0 <= xp_23_0 <= 21.54873734058
 0 <= xp_23_1 <= 10.77436867029
 0 <= xp_23_2 <= 1.88250528843575
 0 <= xp_23_3 <= 1.88250528843575
 0 <= xp_23_4 <= 1.88250528843575

End
